* #variable= 500 #constraint= 1
min: -814 x1 -312 x2 -946 x3 -112 x4 -8 x5 -618 x6 -992 x7 -830 x8 -562 x9 -876 x10 -192 x11 -482 x12 -578 x13 -396 x14 -890 x15 -790 x16 -474 x17 -504 x18 -944 x19 -780 x20 -674 x21 -176 x22 -784 x23 -84 x24 -618 x25 -988 x26 -810 x27 -236 x28 -546 x29 -40 x30 -738 x31 -22 x32 -98 x33 -600 x34 -414 x35 -652 x36 -918 x37 -692 x38 -604 x39 -924 x40 -306 x41 -172 x42 -822 x43 -672 x44 -346 x45 -654 x46 -268 x47 -330 x48 -722 x49 -938 x50 -214 x51 -456 x52 -624 x53 -554 x54 -70 x55 -890 x56 -796 x57 -340 x58 -404 x59 -658 x60 -456 x61 -766 x62 -298 x63 -418 x64 -970 x65 -950 x66 -970 x67 -272 x68 -42 x69 -734 x70 -622 x71 -454 x72 -874 x73 -674 x74 -66 x75 -896 x76 -74 x77 -112 x78 -884 x79 -518 x80 -380 x81 -526 x82 -24 x83 -928 x84 -900 x85 -572 x86 -372 x87 -852 x88 -956 x89 -740 x90 -608 x91 -948 x92 -296 x93 -734 x94 -848 x95 -22 x96 -172 x97 -958 x98 -566 x99 -404 x100 -668 x101 -608 x102 -438 x103 -524 x104 -314 x105 -36 x106 -634 x107 -566 x108 -542 x109 -518 x110 -62 x111 -660 x112 -262 x113 -612 x114 -208 x115 -398 x116 -10 x117 -666 x118 -472 x119 -12 x120 -202 x121 -914 x122 -448 x123 -992 x124 -518 x125 -772 x126 -688 x127 -328 x128 -274 x129 -428 x130 -842 x131 -142 x132 -954 x133 -930 x134 -588 x135 -720 x136 -370 x137 -670 x138 -664 x139 -952 x140 -228 x141 -834 x142 -548 x143 -696 x144 -932 x145 -138 x146 -588 x147 -648 x148 -630 x149 -392 x150 -878 x151 -68 x152 -808 x153 -376 x154 -680 x155 -638 x156 -374 x157 -626 x158 -352 x159 -178 x160 -580 x161 -356 x162 -212 x163 -296 x164 -240 x165 -144 x166 -680 x167 -916 x168 -220 x169 -754 x170 -56 x171 -526 x172 -230 x173 -636 x174 -434 x175 -600 x176 -104 x177 -766 x178 -552 x179 -264 x180 -210 x181 -28 x182 -930 x183 -120 x184 -58 x185 -644 x186 -462 x187 -254 x188 -294 x189 -30 x190 -178 x191 -648 x192 -382 x193 -458 x194 -518 x195 -538 x196 -194 x197 -594 x198 -354 x199 -606 x200 -538 x201 -270 x202 -6 x203 -16 x204 -880 x205 -852 x206 -846 x207 -472 x208 -118 x209 -232 x210 -376 x211 -196 x212 -764 x213 -504 x214 -760 x215 -818 x216 -84 x217 -520 x218 -162 x219 -170 x220 -536 x221 -684 x222 -36 x223 -768 x224 -558 x225 -332 x226 -102 x227 -802 x228 -538 x229 -928 x230 -688 x231 -522 x232 -276 x233 -988 x234 -614 x235 -246 x236 -230 x237 -336 x238 -578 x239 -488 x240 -806 x241 -280 x242 -638 x243 -552 x244 -82 x245 -992 x246 -140 x247 -776 x248 -530 x249 -282 x250 -188 x251 -830 x252 -314 x253 -38 x254 -154 x255 -524 x256 -528 x257 -754 x258 -960 x259 -10 x260 -304 x261 -524 x262 -662 x263 -44 x264 -692 x265 -146 x266 -494 x267 -640 x268 -182 x269 -676 x270 -60 x271 -258 x272 -942 x273 -22 x274 -360 x275 -200 x276 -876 x277 -304 x278 -42 x279 -840 x280 -264 x281 -524 x282 -894 x283 -974 x284 -500 x285 -940 x286 -68 x287 -82 x288 -918 x289 -450 x290 -264 x291 -736 x292 -420 x293 -330 x294 -752 x295 -992 x296 -286 x297 -474 x298 -512 x299 -112 x300 -770 x301 -58 x302 -398 x303 -804 x304 -720 x305 -762 x306 -866 x307 -902 x308 -856 x309 -398 x310 -686 x311 -634 x312 -804 x313 -356 x314 -596 x315 -766 x316 -712 x317 -710 x318 -954 x319 -530 x320 -982 x321 -808 x322 -856 x323 -424 x324 -740 x325 -400 x326 -572 x327 -50 x328 -510 x329 -498 x330 -360 x331 -234 x332 -864 x333 -976 x334 -382 x335 -374 x336 -252 x337 -412 x338 -790 x339 -830 x340 -448 x341 -252 x342 -940 x343 -836 x344 -590 x345 -716 x346 -812 x347 -12 x348 -604 x349 -160 x350 -144 x351 -678 x352 -68 x353 -296 x354 -726 x355 -60 x356 -612 x357 -24 x358 -514 x359 -878 x360 -808 x361 -388 x362 -650 x363 -780 x364 -562 x365 -490 x366 -134 x367 -242 x368 -838 x369 -426 x370 -114 x371 -944 x372 -452 x373 -862 x374 -294 x375 -26 x376 -950 x377 -994 x378 -950 x379 -976 x380 -752 x381 -754 x382 -200 x383 -142 x384 -482 x385 -832 x386 -462 x387 -122 x388 -198 x389 -614 x390 -784 x391 -136 x392 -82 x393 -46 x394 -68 x395 -502 x396 -772 x397 -180 x398 -386 x399 -86 x400 -556 x401 -306 x402 -714 x403 -220 x404 -956 x405 -914 x406 -476 x407 -112 x408 -52 x409 -344 x410 -290 x411 -850 x412 -174 x413 -804 x414 -512 x415 -590 x416 -652 x417 -400 x418 -634 x419 -148 x420 -26 x421 -638 x422 -946 x423 -282 x424 -268 x425 -322 x426 -390 x427 -702 x428 -372 x429 -594 x430 -80 x431 -532 x432 -722 x433 -148 x434 -506 x435 -350 x436 -494 x437 -746 x438 -64 x439 -400 x440 -776 x441 -716 x442 -890 x443 -740 x444 -778 x445 -158 x446 -962 x447 -562 x448 -178 x449 -862 x450 -554 x451 -978 x452 -160 x453 -286 x454 -34 x455 -12 x456 -732 x457 -894 x458 -112 x459 -922 x460 -570 x461 -822 x462 -980 x463 -208 x464 -946 x465 -176 x466 -532 x467 -326 x468 -838 x469 -754 x470 -598 x471 -786 x472 -442 x473 -344 x474 -410 x475 -882 x476 -386 x477 -240 x478 -922 x479 -608 x480 -610 x481 -806 x482 -220 x483 -986 x484 -190 x485 -256 x486 -872 x487 -390 x488 -904 x489 -854 x490 -676 x491 -452 x492 -920 x493 -958 x494 -656 x495 -16 x496 -218 x497 -438 x498 -102 x499 -228 x500 ;
-814 x1 -312 x2 -946 x3 -112 x4 -8 x5 -618 x6 -992 x7 -830 x8 -562 x9 -876 x10 -192 x11 -482 x12 -578 x13 -396 x14 -890 x15 -790 x16 -474 x17 -504 x18 -944 x19 -780 x20 -674 x21 -176 x22 -784 x23 -84 x24 -618 x25 -988 x26 -810 x27 -236 x28 -546 x29 -40 x30 -738 x31 -22 x32 -98 x33 -600 x34 -414 x35 -652 x36 -918 x37 -692 x38 -604 x39 -924 x40 -306 x41 -172 x42 -822 x43 -672 x44 -346 x45 -654 x46 -268 x47 -330 x48 -722 x49 -938 x50 -214 x51 -456 x52 -624 x53 -554 x54 -70 x55 -890 x56 -796 x57 -340 x58 -404 x59 -658 x60 -456 x61 -766 x62 -298 x63 -418 x64 -970 x65 -950 x66 -970 x67 -272 x68 -42 x69 -734 x70 -622 x71 -454 x72 -874 x73 -674 x74 -66 x75 -896 x76 -74 x77 -112 x78 -884 x79 -518 x80 -380 x81 -526 x82 -24 x83 -928 x84 -900 x85 -572 x86 -372 x87 -852 x88 -956 x89 -740 x90 -608 x91 -948 x92 -296 x93 -734 x94 -848 x95 -22 x96 -172 x97 -958 x98 -566 x99 -404 x100 -668 x101 -608 x102 -438 x103 -524 x104 -314 x105 -36 x106 -634 x107 -566 x108 -542 x109 -518 x110 -62 x111 -660 x112 -262 x113 -612 x114 -208 x115 -398 x116 -10 x117 -666 x118 -472 x119 -12 x120 -202 x121 -914 x122 -448 x123 -992 x124 -518 x125 -772 x126 -688 x127 -328 x128 -274 x129 -428 x130 -842 x131 -142 x132 -954 x133 -930 x134 -588 x135 -720 x136 -370 x137 -670 x138 -664 x139 -952 x140 -228 x141 -834 x142 -548 x143 -696 x144 -932 x145 -138 x146 -588 x147 -648 x148 -630 x149 -392 x150 -878 x151 -68 x152 -808 x153 -376 x154 -680 x155 -638 x156 -374 x157 -626 x158 -352 x159 -178 x160 -580 x161 -356 x162 -212 x163 -296 x164 -240 x165 -144 x166 -680 x167 -916 x168 -220 x169 -754 x170 -56 x171 -526 x172 -230 x173 -636 x174 -434 x175 -600 x176 -104 x177 -766 x178 -552 x179 -264 x180 -210 x181 -28 x182 -930 x183 -120 x184 -58 x185 -644 x186 -462 x187 -254 x188 -294 x189 -30 x190 -178 x191 -648 x192 -382 x193 -458 x194 -518 x195 -538 x196 -194 x197 -594 x198 -354 x199 -606 x200 -538 x201 -270 x202 -6 x203 -16 x204 -880 x205 -852 x206 -846 x207 -472 x208 -118 x209 -232 x210 -376 x211 -196 x212 -764 x213 -504 x214 -760 x215 -818 x216 -84 x217 -520 x218 -162 x219 -170 x220 -536 x221 -684 x222 -36 x223 -768 x224 -558 x225 -332 x226 -102 x227 -802 x228 -538 x229 -928 x230 -688 x231 -522 x232 -276 x233 -988 x234 -614 x235 -246 x236 -230 x237 -336 x238 -578 x239 -488 x240 -806 x241 -280 x242 -638 x243 -552 x244 -82 x245 -992 x246 -140 x247 -776 x248 -530 x249 -282 x250 -188 x251 -830 x252 -314 x253 -38 x254 -154 x255 -524 x256 -528 x257 -754 x258 -960 x259 -10 x260 -304 x261 -524 x262 -662 x263 -44 x264 -692 x265 -146 x266 -494 x267 -640 x268 -182 x269 -676 x270 -60 x271 -258 x272 -942 x273 -22 x274 -360 x275 -200 x276 -876 x277 -304 x278 -42 x279 -840 x280 -264 x281 -524 x282 -894 x283 -974 x284 -500 x285 -940 x286 -68 x287 -82 x288 -918 x289 -450 x290 -264 x291 -736 x292 -420 x293 -330 x294 -752 x295 -992 x296 -286 x297 -474 x298 -512 x299 -112 x300 -770 x301 -58 x302 -398 x303 -804 x304 -720 x305 -762 x306 -866 x307 -902 x308 -856 x309 -398 x310 -686 x311 -634 x312 -804 x313 -356 x314 -596 x315 -766 x316 -712 x317 -710 x318 -954 x319 -530 x320 -982 x321 -808 x322 -856 x323 -424 x324 -740 x325 -400 x326 -572 x327 -50 x328 -510 x329 -498 x330 -360 x331 -234 x332 -864 x333 -976 x334 -382 x335 -374 x336 -252 x337 -412 x338 -790 x339 -830 x340 -448 x341 -252 x342 -940 x343 -836 x344 -590 x345 -716 x346 -812 x347 -12 x348 -604 x349 -160 x350 -144 x351 -678 x352 -68 x353 -296 x354 -726 x355 -60 x356 -612 x357 -24 x358 -514 x359 -878 x360 -808 x361 -388 x362 -650 x363 -780 x364 -562 x365 -490 x366 -134 x367 -242 x368 -838 x369 -426 x370 -114 x371 -944 x372 -452 x373 -862 x374 -294 x375 -26 x376 -950 x377 -994 x378 -950 x379 -976 x380 -752 x381 -754 x382 -200 x383 -142 x384 -482 x385 -832 x386 -462 x387 -122 x388 -198 x389 -614 x390 -784 x391 -136 x392 -82 x393 -46 x394 -68 x395 -502 x396 -772 x397 -180 x398 -386 x399 -86 x400 -556 x401 -306 x402 -714 x403 -220 x404 -956 x405 -914 x406 -476 x407 -112 x408 -52 x409 -344 x410 -290 x411 -850 x412 -174 x413 -804 x414 -512 x415 -590 x416 -652 x417 -400 x418 -634 x419 -148 x420 -26 x421 -638 x422 -946 x423 -282 x424 -268 x425 -322 x426 -390 x427 -702 x428 -372 x429 -594 x430 -80 x431 -532 x432 -722 x433 -148 x434 -506 x435 -350 x436 -494 x437 -746 x438 -64 x439 -400 x440 -776 x441 -716 x442 -890 x443 -740 x444 -778 x445 -158 x446 -962 x447 -562 x448 -178 x449 -862 x450 -554 x451 -978 x452 -160 x453 -286 x454 -34 x455 -12 x456 -732 x457 -894 x458 -112 x459 -922 x460 -570 x461 -822 x462 -980 x463 -208 x464 -946 x465 -176 x466 -532 x467 -326 x468 -838 x469 -754 x470 -598 x471 -786 x472 -442 x473 -344 x474 -410 x475 -882 x476 -386 x477 -240 x478 -922 x479 -608 x480 -610 x481 -806 x482 -220 x483 -986 x484 -190 x485 -256 x486 -872 x487 -390 x488 -904 x489 -854 x490 -676 x491 -452 x492 -920 x493 -958 x494 -656 x495 -16 x496 -218 x497 -438 x498 -102 x499 -228 x500 >= -127685 ;